c --- [ banner ] -------------------------------------------------------------
c 
c CaDiCaL Radically Simplified CDCL SAT Solver
c Copyright (c) 2016-2021 A. Biere, M. Fleury, N. Froleyks
c 
c Version 1.5.2 9c38a080b32c28d805e8e6ca21849856b0cda605
c g++ (Ubuntu 7.5.0-3ubuntu1~18.04) 7.5.0 -Wall -Wextra -O3 -DNDEBUG
c Wed Feb 16 23:15:36 EST 2022 Linux fac-vanhoeve01 5.4.0-99-generic x86_64
c 
c --- [ limit ] --------------------------------------------------------------
c 
c setting time limit to 600 seconds real time (due to '-t 600')
c setting conflict limit to 1000000000 conflicts (due to '1000000000')
c 
c --- [ parsing input ] ------------------------------------------------------
c 
c reading DIMACS file from 'ddfwcnfs/wap04a.col_40.cnf'
c opening file to read 'ddfwcnfs/wap04a.col_40.cnf'
c found 'p cnf 209240 11517191' header
c parsed 11517191 clauses in 6.57 seconds process time
c closing file 'ddfwcnfs/wap04a.col_40.cnf'
c after reading 199732645 bytes 190.5 MB
c 
c --- [ options ] ------------------------------------------------------------
c 
c all options are set to their default value
c 
c --- [ solving ] ------------------------------------------------------------
c 
c time measured in process time since initialization
c 
c  seconds   reductions  redundant   irredundant
c          MB    restarts       trail         variables
c           level   conflicts       glue            remaining
c 
c *  6.57 998  0 0   0    0    0  0% 0 11515591 207640 99%
c {  6.61 1000  0 0   0    0    0  0% 0 11515591 207640 99%
c -  8.50 1000 40 1   0  301  103  2% 36 11515591 207640 99%
c }  8.69 1000 40 1   0 1000  372  2% 36 11515591 207640 99%
c [  8.69 1000  0 1   0 1000  372  0% 0 11515591 207640 99%
c O  8.69 1000 55 1   0 1005  376  2% 37 11515591 207640 99%
c - 13.78 1265 43 2   1 2137  944  2% 39 11515591 207640 99%
c ] 13.88 1265 45 2   1 3002 1590  2% 40 11515591 207640 99%
c { 13.88 1265 40 2   1 3002 1590  2% 36 11515591 207640 99%
c F 13.89 1265 40 2   1 3009 1596  2% 36 11515591 207640 99%
c - 17.60 1265 45 3   9 4892 2265  3% 38 11515591 207640 99%
c # 26.41 1259 44 3  12 6010 3012  3% 38 11515591 207640 99%
c } 26.51 1259 50 3  12 7002 3813  3% 38 11515591 207640 99%
c [ 26.51 1259 45 3  12 7002 3813  2% 40 11515591 207640 99%
c - 30.31 1259 47 4  13 8565 3596  3% 41 11515591 207640 99%
c I 30.50 1259 53 4  14 10011 4698  3% 41 11515591 207640 99%
c s 34.27 1259 5294 4  16 11587 5555  9% 50 11515591 207640 99%
c e 53.58 1260 5294 4  16 11587 1703  9% 50 10703141 198403 95%
c - 60.18 1257 9355 5  16 13159 2425 15% 53 10703141 198403 95%
c ] 69.41 1257 14060 5  17 15002 3979 21% 66 10703141 198403 95%
c 
c  seconds    reductions   redundant    irredundant
c          MB     restarts        trail          variables
c            level    conflicts       glue             remaining
c 
c { 69.41 1257 50 5  17 15002 3979  3% 38 10703141 198403 95%
c B 69.47 1257 89 5  17 15012 3989  3% 38 10703141 198403 95%
c - 73.29 1258 229 6  22 18612 4685  3% 34 10703141 198403 95%
c W 77.05 1258 188 6  22 21015 6464  3% 34 10703141 198403 95%
c - 80.87 1257 150 7  26 24976 5923  3% 33 10703141 198403 95%
c F 81.17 1257 131 7  26 28018 8038  3% 32 10703141 198403 95%
c } 90.18 1257 116 7  28 31002 10191  3% 32 10703141 198403 95%
c [ 90.18 1257 14060 7  28 31002 10191 21% 66 10703141 198403 95%
c - 93.82 1258 12429 8  28 32247 7251 19% 62 10703141 198403 95%
c s 96.87 1258 10169 8  30 34602 8319 17% 59 10703141 198403 95%
c s 108.98 1258 10169 8  30 34602 8109 17% 59 10703141 198403 95%
c ^ 111.07 1258 10169 8  30 34602 8109 17% 59 10703141 198403 95%
c B 111.22 1258 9146 8  31 36021 9182 15% 58 10703141 198403 95%
c - 115.82 1259 10895 9  34 40426 8931 19% 66 10703141 198403 95%
c W 120.87 1259 9656 9  35 45022 12453 22% 80 10703141 198403 95%
c - 125.07 1260 9822 10  36 49515 9358 28% 80 10703141 198403 95%
c O 134.21 1260 8236 10  37 55025 13498 25% 82 10703141 198403 95%
c - 137.79 1259 7112 11  41 59512 9898 22% 76 10703141 198403 95%
c ] 138.16 1259 6408 11  43 63003 12224 20% 73 10703141 198403 95%
c { 138.16 1259 116 11  43 63003 12224  3% 32 10703141 198403 95%
c 
c  seconds      reductions     redundant    irredundant
c           MB       restarts         trail          variables
c              level     conflicts        glue             remaining
c 
c B 138.42 1259 111 11  43 66027 14803  3% 31 10703141 198403 95%
c s 139.41 1259 125 11 846 69124 15578  4% 32 10703141 198403 95%
c s 155.87 1259 125 11 846 69124 15378  4% 32 10703141 198403 95%
c ^ 157.85 1259 125 11 846 69124 15378  4% 32 10703141 198403 95%
c - 161.42 1258 121 12 1171 70421 8991  4% 32 10703141 198403 95%
c W 175.07 1258 101 12 2924 78028 11323  4% 33 10703141 198403 95%
c - 178.82 1258 94 13 3734 82238 6238  4% 34 10703141 198403 95%
c # 179.75 1258 84 13 4582 91030 9840  4% 35 10703141 198403 95%
c - 183.51 1258 80 14 4654 94964 7366  4% 35 10703141 198403 95%
c B 193.21 1258 71 14 4750 105031 13425  4% 35 10703141 198403 95%
c - 196.93 1258 70 15 4916 108597 9591  4% 35 10703141 198403 95%
c s 197.92 1258 66 15 5090 115154 12313  4% 36 10703141 198403 95%
c s 214.93 1258 66 15 5090 115154 10860  4% 36 10703141 198403 95%
c ^ 217.00 1258 66 15 5090 115154 10860  4% 36 10703141 198403 95%
c W 222.68 1258 64 15 5263 120033 13064  4% 36 10703141 198403 95%
c - 226.64 1258 63 16 5313 123139 8855  4% 36 10703141 198403 95%
c } 227.00 1258 61 16 5362 127003 10692  4% 36 10703141 198403 95%
c [ 227.00 1258 6408 16 5362 127003 10692 20% 73 10703141 198403 95%
c B 229.10 1258 8412 16 5367 136034 17713 23% 86 10703141 198403 95%
c - 232.65 1262 7903 17 5368 138591 12882 22% 84 10703141 198403 95%
c 
c  seconds       reductions       redundant    irredundant
c           MB        restarts           trail          variables
c              level       conflicts         glue             remaining
c 
c W 248.29 1262 5765 17 5371 153036 21850 17% 73 10703141 198403 95%
c - 252.36 1261 7422 18 5371 154952 14188 19% 80 10703141 198403 95%
c I 259.34 1261 15488 18 5374 171044 27848 26% 144 10703141 198403 95%
c - 263.12 1279 15673 19 5375 172222 18514 26% 142 10703141 198403 95%
c s 263.59 1279 15689 19 5375 172690 18203 26% 142 10703141 198403 95%
c w 271.74 1279 15689 19 5375 172690 18203 26% 142 10703141 198403 95%
c s 280.66 1279 15689 19 5375 172690 18017 26% 142 10703141 198403 95%
c ^ 282.70 1279 15689 19 5375 172690 18017 26% 142 10703141 198403 95%
c B 295.38 1279 12980 19 5385 190048 32320 25% 133 10703141 198403 95%
c - 298.89 1265 12984 20 5385 190400 19502 25% 133 10703141 198403 95%
c - 306.36 1266 10977 21 5393 209485 20001 25% 133 10703141 198403 95%
c W 313.36 1266 10904 21 5393 210049 20468 25% 133 10703141 198403 95%
c - 329.28 1266 8761 22 5401 229482 20906 23% 130 10703141 198403 95%
c O 329.48 1266 8606 22 5401 231050 22043 24% 129 10703141 198403 95%
c s 331.22 1266 7514 22 5402 241732 29486 21% 118 10703141 198403 95%
c w 339.52 1266 7514 22 5402 241732 29482 21% 118 10703141 198403 95%
c s 348.86 1266 7514 22 5402 241732 27979 21% 118 10703141 198403 95%
c ^ 350.98 1266 7514 22 5402 241732 27979 21% 118 10703141 198403 95%
c - 355.66 1261 6753 23 5402 250385 19307 19% 111 10703141 198403 95%
c B 356.08 1261 6538 23 5403 253054 21401 18% 108 10703141 198403 95%
c 
c  seconds       reductions       redundant     irredundant
c           MB        restarts           trail           variables
c              level       conflicts          glue             remaining
c 
c ] 356.35 1261 7587 23 5403 255004 22879 19% 108 10703141 198403 95%
c { 356.35 1261 61 23 5403 255004 22879  4% 36 10703141 198403 95%
c - 361.49 1260 62 24 9710 272199 15126  4% 41 10703141 198403 95%
c F 370.48 1260 62 24 10668 276056 16524  4% 42 10703141 198403 95%
c - 376.10 1260 57 25 10674 294921 18565  4% 41 10703141 198403 95%
c B 376.72 1260 56 25 10674 300061 22152  3% 41 10703141 198403 95%
c - 382.59 1263 97 26 12527 318551 23572  4% 43 10703141 198403 95%
c s 383.51 1263 104 26 12527 322284 25863  4% 42 10703141 198403 95%
c w 391.76 1263 104 26 12527 322284 25854  4% 42 10703141 198403 95%
c s 401.13 1263 104 26 12527 322284 25739  4% 42 10703141 198403 95%
c W 412.04 1263 109 26 12527 325063 28010  4% 42 10703141 198403 95%
c - 426.15 1262 98 27 12543 343090 24763  3% 42 10703141 198403 95%
c # 426.94 1262 92 27 12543 351066 29638  3% 41 10703141 198403 95%
c - 432.15 1262 85 28 12543 368537 26438  3% 40 10703141 198403 95%
c B 433.28 1262 82 28 12543 378068 34175  3% 39 10703141 198403 95%
c - 447.33 1262 80 29 12597 394893 28218  3% 39 10703141 198403 95%
c W 458.80 1262 76 29 12659 406069 35950  3% 39 10703141 198403 95%
c - 464.08 1262 70 30 12707 422159 25289  3% 39 10703141 198403 95%
c F 465.36 1262 67 30 12782 435072 32779  3% 39 10703141 198403 95%
c - 470.04 1262 67 31 12784 450333 26574  3% 38 10703141 198403 95%
c 
c  seconds     reductions        redundant    irredundant
c           MB       restarts           trail          variables
c             level       conflicts         glue             remaining
c 
c B 480.10 1262 63 31 12825 465074 36750  3% 38 10703141 198403 95%
c - 485.30 1262 68 32 12909 479416 28798  4% 38 10703141 198403 95%
c W 499.09 1262 65 32 13021 496075 41872  4% 38 10703141 198403 95%
c - 504.30 1264 63 33 13038 509409 31997  4% 38 10703141 198403 95%
c } 504.52 1264 62 33 13040 511004 33305  4% 38 10703141 198403 95%
c [ 504.52 1264 7587 33 13040 511004 33305 19% 108 10703141 198403 95%
c W 527.43 1264 6435 33 13040 528076 46378 17% 101 10703141 198403 95%
c - 532.03 1265 5589 34 13041 540312 31113 15% 96 10703141 198403 95%
c I 536.53 1265 5817 34 13054 561077 47088 16% 101 10703141 198403 95%
c - 542.92 1273 6352 35 13055 572123 33158 18% 108 10703141 198403 95%
c B 546.12 1273 5689 35 13069 595078 49952 18% 105 10703141 198403 95%
c - 562.18 1272 7097 36 13070 604842 33460 20% 110 10703141 198403 95%
c W 581.28 1272 5925 36 13077 630080 53165 22% 104 10703141 198403 95%
c - 586.54 1271 5537 37 13081 638472 35370 23% 102 10703141 198403 95%
c O 591.64 1271 4376 37 13093 666081 57345 21% 102 10703141 198403 95%
c - 595.80 1270 4082 38 13097 673010 36494 20% 99 10703141 198403 95%
c ] 603.10 1270 3802 38 13100 680020 41759 19% 95 10703141 198403 95%
c ? 603.10 1270 3802 38 13100 680020 41759 19% 95 10703141 198403 95%
c 
c --- [ result ] -------------------------------------------------------------
c 
c UNKNOWN
c 
c --- [ run-time profiling ] -------------------------------------------------
c 
c process time taken by individual solving procedures
c (percentage relative to process time for solving)
c 
c       348.78   58.47% search
c       247.75   41.53% simplify
c       148.53   24.90% stable
c       113.17   18.97% unstable
c        87.04   14.59% walk
c        65.69   11.01% ternary
c        55.50    9.30% elim
c        42.33    7.10% vivify
c        10.67    1.79% probe
c         9.83    1.65% subsume
c         6.57    1.10% parse
c         0.04    0.01% lucky
c   =================================
c       596.53   98.91% solve
c 
c last line shows process time for solving
c (percentage relative to total process time)
c 
c --- [ statistics ] ---------------------------------------------------------
c 
c chronological:            122121        17.96 %  of conflicts
c conflicts:                680020      1139.96    per second
c decisions:               3217042      5392.92    per second
c eliminated:                 9237         4.41 %  of all variables
c fixed:                      1600         0.76 %  of all variables
c learned:                  673291        99.01 %  per conflict
c learned_lits:           98671323       100.00 %  learned literals
c minimized:                     0         0.00 %  learned literals
c shrunken:               38254671        38.77 %  learned literals
c minishrunken:            2304977         2.34 %  learned literals
c propagations:          245874706         0.41 M  per second
c reduced:                  430987        63.38 %  per conflict
c rephased:                     36     18889.44    interval
c restarts:                  13100        51.91    interval
c stabilizing:                   5        49.85 %  of conflicts
c subsumed:                 196675         0.80 %  of all clauses
c strengthened:              19278         0.08 %  of all clauses
c vivified:                     28         0.00 %  of all clauses
c walked:                       11     61820.00    interval
c weakened:                 975519         2.70    average size
c 
c seconds are measured in process time for solving
c 
c --- [ resources ] ----------------------------------------------------------
c 
c total process time since initialization:       603.10    seconds
c total real time since initialization:          603.15    seconds
c maximum resident set size of process:         1638.29    MB
c 
c --- [ shutting down ] ------------------------------------------------------
c 
c exit 0
